1 135 50 4 15 179 88 194 10 55 70 125 90 101 3 197 147 66 178 87 152 23 122 28 170 71 127 68 40 171 16 172 144 181 162 6 116 24 52 59 120 60 112 5 195 134 118 191 2 92 183 42 169 34 80 193 76 46 140 77 174 192 109 110 51 48 124 19 78 146 131 199 104 184 9 121 83 167 107 18 13 123 159 143 151 25 133 36 189 47 154 160 99 188 81 163 155 49 82 44 79 173 150 187 106 38 37 69 196 132 117 158 30 8 43 130 175 98 111 119 102 113 190 97 129 105 84 45 177 115 29 161 7 95 138 85 57 58 180 39 166 21 141 11 182 185 0 94 56 149 103 75 198 22 62 32 168 64 74 27 100 12 153 63 20 91 164 89 157 114 139 72 61 145 186 33 73 17 96 156 126 108 165 14 93 136 35 65 31 86 41 137 142 176 53 54 128 26 148 67 

